<instance format="XCSP3" type="CSP">
  <variables>
    <array id="x" note="x[i][j] is the index of the piece at row i and column j" size="[7][7]"> 0..48 </array>
    <array id="t" note="t[i][j] is the value at the top of the piece at row i and column j" size="[8][7]"> 0..9 </array>
    <array id="l" note="l[i][j] is the value at the left of the piece at row i and column j" size="[7][8]"> 0..9 </array>
  </variables>
  <constraints>
    <allDifferent note="all pieces must be placed (only once)"> x[][] </allDifferent>
    <group note="all pieces must be valid (i.e., must correspond to those given initially, possibly after applying some rotation)">
      <extension>
        <list> %... </list>
        <supports> (0,0,0,1,2)(0,0,1,2,0)(0,1,2,0,0)(0,2,0,0,1)(1,0,0,1,3)(1,0,1,3,0)(1,1,3,0,0)(1,3,0,0,1)(2,0,0,2,1)(2,0,2,1,0)(2,1,0,0,2)(2,2,1,0,0)(3,0,0,3,2)(3,0,3,2,0)(3,2,0,0,3)(3,3,2,0,0)(4,0,1,5,1)(4,1,0,1,5)(4,1,5,1,0)(4,5,1,0,1)(5,0,1,6,1)(5,1,0,1,6)(5,1,6,1,0)(5,6,1,0,1)(6,0,1,6,3)(6,1,6,3,0)(6,3,0,1,6)(6,6,3,0,1)(7,0,1,7,2)(7,1,7,2,0)(7,2,0,1,7)(7,7,2,0,1)(8,0,1,8,2)(8,1,8,2,0)(8,2,0,1,8)(8,8,2,0,1)(9,0,1,8,3)(9,1,8,3,0)(9,3,0,1,8)(9,8,3,0,1)(10,0,2,4,2)(10,2,0,2,4)(10,2,4,2,0)(10,4,2,0,2)(11,0,2,5,3)(11,2,5,3,0)(11,3,0,2,5)(11,5,3,0,2)(12,0,2,7,2)(12,2,0,2,7)(12,2,7,2,0)(12,7,2,0,2)(13,0,2,8,2)(13,2,0,2,8)(13,2,8,2,0)(13,8,2,0,2)(14,0,2,8,3)(14,2,8,3,0)(14,3,0,2,8)(14,8,3,0,2)(15,0,2,9,1)(15,1,0,2,9)(15,2,9,1,0)(15,9,1,0,2)(16,0,2,9,3)(16,2,9,3,0)(16,3,0,2,9)(16,9,3,0,2)(17,0,3,4,1)(17,1,0,3,4)(17,3,4,1,0)(17,4,1,0,3)(18,0,3,4,2)(18,2,0,3,4)(18,3,4,2,0)(18,4,2,0,3)(19,0,3,5,1)(19,1,0,3,5)(19,3,5,1,0)(19,5,1,0,3)(20,0,3,6,1)(20,1,0,3,6)(20,3,6,1,0)(20,6,1,0,3)(21,0,3,6,3)(21,3,0,3,6)(21,3,6,3,0)(21,6,3,0,3)(22,0,3,8,3)(22,3,0,3,8)(22,3,8,3,0)(22,8,3,0,3)(23,0,3,9,1)(23,1,0,3,9)(23,3,9,1,0)(23,9,1,0,3)(24,4,4,5,8)(24,4,5,8,4)(24,5,8,4,4)(24,8,4,4,5)(25,4,4,7,5)(25,4,7,5,4)(25,5,4,4,7)(25,7,5,4,4)(26,4,4,7,7)(26,4,7,7,4)(26,7,4,4,7)(26,7,7,4,4)(27,4,5,5,7)(27,5,5,7,4)(27,5,7,4,5)(27,7,4,5,5)(28,4,5,8,5)(28,5,4,5,8)(28,5,8,5,4)(28,8,5,4,5)(29,4,6,5,7)(29,5,7,4,6)(29,6,5,7,4)(29,7,4,6,5)(30,4,6,7,6)(30,6,4,6,7)(30,6,7,6,4)(30,7,6,4,6)(31,4,8,6,9)(31,6,9,4,8)(31,8,6,9,4)(31,9,4,8,6)(32,4,8,7,7)(32,7,4,8,7)(32,7,7,4,8)(32,8,7,7,4)(33,4,8,9,5)(33,5,4,8,9)(33,8,9,5,4)(33,9,5,4,8)(34,4,8,9,6)(34,6,4,8,9)(34,8,9,6,4)(34,9,6,4,8)(35,4,9,6,8)(35,6,8,4,9)(35,8,4,9,6)(35,9,6,8,4)(36,4,9,8,5)(36,5,4,9,8)(36,8,5,4,9)(36,9,8,5,4)(37,4,9,9,6)(37,6,4,9,9)(37,9,6,4,9)(37,9,9,6,4)(38,5,5,8,7)(38,5,8,7,5)(38,7,5,5,8)(38,8,7,5,5)(39,5,5,9,7)(39,5,9,7,5)(39,7,5,5,9)(39,9,7,5,5)(40,5,6,7,7)(40,6,7,7,5)(40,7,5,6,7)(40,7,7,5,6)(41,5,6,8,6)(41,6,5,6,8)(41,6,8,6,5)(41,8,6,5,6)(42,5,6,9,9)(42,6,9,9,5)(42,9,5,6,9)(42,9,9,5,6)(43,5,9,7,9)(43,7,9,5,9)(43,9,5,9,7)(43,9,7,9,5)(44,6,7,9,8)(44,7,9,8,6)(44,8,6,7,9)(44,9,8,6,7)(45,6,8,7,7)(45,7,6,8,7)(45,7,7,6,8)(45,8,7,7,6)(46,6,8,8,7)(46,7,6,8,8)(46,8,7,6,8)(46,8,8,7,6)(47,6,9,8,9)(47,8,9,6,9)(47,9,6,9,8)(47,9,8,9,6)(48,6,9,9,7)(48,7,6,9,9)(48,9,7,6,9)(48,9,9,7,6) </supports>
      </extension>
      <args> x[0][0] t[0][0] l[0][1] t[1][0] l[0][0] </args>
      <args> x[0][1] t[0][1] l[0][2] t[1][1] l[0][1] </args>
      <args> x[0][2] t[0][2] l[0][3] t[1][2] l[0][2] </args>
      <args> x[0][3] t[0][3] l[0][4] t[1][3] l[0][3] </args>
      <args> x[0][4] t[0][4] l[0][5] t[1][4] l[0][4] </args>
      <args> x[0][5] t[0][5] l[0][6] t[1][5] l[0][5] </args>
      <args> x[0][6] t[0][6] l[0][7] t[1][6] l[0][6] </args>
      <args> x[1][0] t[1][0] l[1][1] t[2][0] l[1][0] </args>
      <args> x[1][1] t[1][1] l[1][2] t[2][1] l[1][1] </args>
      <args> x[1][2] t[1][2] l[1][3] t[2][2] l[1][2] </args>
      <args> x[1][3] t[1][3] l[1][4] t[2][3] l[1][3] </args>
      <args> x[1][4] t[1][4] l[1][5] t[2][4] l[1][4] </args>
      <args> x[1][5] t[1][5] l[1][6] t[2][5] l[1][5] </args>
      <args> x[1][6] t[1][6] l[1][7] t[2][6] l[1][6] </args>
      <args> x[2][0] t[2][0] l[2][1] t[3][0] l[2][0] </args>
      <args> x[2][1] t[2][1] l[2][2] t[3][1] l[2][1] </args>
      <args> x[2][2] t[2][2] l[2][3] t[3][2] l[2][2] </args>
      <args> x[2][3] t[2][3] l[2][4] t[3][3] l[2][3] </args>
      <args> x[2][4] t[2][4] l[2][5] t[3][4] l[2][4] </args>
      <args> x[2][5] t[2][5] l[2][6] t[3][5] l[2][5] </args>
      <args> x[2][6] t[2][6] l[2][7] t[3][6] l[2][6] </args>
      <args> x[3][0] t[3][0] l[3][1] t[4][0] l[3][0] </args>
      <args> x[3][1] t[3][1] l[3][2] t[4][1] l[3][1] </args>
      <args> x[3][2] t[3][2] l[3][3] t[4][2] l[3][2] </args>
      <args> x[3][3] t[3][3] l[3][4] t[4][3] l[3][3] </args>
      <args> x[3][4] t[3][4] l[3][5] t[4][4] l[3][4] </args>
      <args> x[3][5] t[3][5] l[3][6] t[4][5] l[3][5] </args>
      <args> x[3][6] t[3][6] l[3][7] t[4][6] l[3][6] </args>
      <args> x[4][0] t[4][0] l[4][1] t[5][0] l[4][0] </args>
      <args> x[4][1] t[4][1] l[4][2] t[5][1] l[4][1] </args>
      <args> x[4][2] t[4][2] l[4][3] t[5][2] l[4][2] </args>
      <args> x[4][3] t[4][3] l[4][4] t[5][3] l[4][3] </args>
      <args> x[4][4] t[4][4] l[4][5] t[5][4] l[4][4] </args>
      <args> x[4][5] t[4][5] l[4][6] t[5][5] l[4][5] </args>
      <args> x[4][6] t[4][6] l[4][7] t[5][6] l[4][6] </args>
      <args> x[5][0] t[5][0] l[5][1] t[6][0] l[5][0] </args>
      <args> x[5][1] t[5][1] l[5][2] t[6][1] l[5][1] </args>
      <args> x[5][2] t[5][2] l[5][3] t[6][2] l[5][2] </args>
      <args> x[5][3] t[5][3] l[5][4] t[6][3] l[5][3] </args>
      <args> x[5][4] t[5][4] l[5][5] t[6][4] l[5][4] </args>
      <args> x[5][5] t[5][5] l[5][6] t[6][5] l[5][5] </args>
      <args> x[5][6] t[5][6] l[5][7] t[6][6] l[5][6] </args>
      <args> x[6][0] t[6][0] l[6][1] t[7][0] l[6][0] </args>
      <args> x[6][1] t[6][1] l[6][2] t[7][1] l[6][1] </args>
      <args> x[6][2] t[6][2] l[6][3] t[7][2] l[6][2] </args>
      <args> x[6][3] t[6][3] l[6][4] t[7][3] l[6][3] </args>
      <args> x[6][4] t[6][4] l[6][5] t[7][4] l[6][4] </args>
      <args> x[6][5] t[6][5] l[6][6] t[7][5] l[6][5] </args>
      <args> x[6][6] t[6][6] l[6][7] t[7][6] l[6][6] </args>
    </group>
    <group note="putting special value 0 on borders">
      <intension> eq(%0,0) </intension>
      <args> t[0][0] </args>
      <args> t[0][1] </args>
      <args> t[0][2] </args>
      <args> t[0][3] </args>
      <args> t[0][4] </args>
      <args> t[0][5] </args>
      <args> t[0][6] </args>
      <args> l[0][7] </args>
      <args> l[1][7] </args>
      <args> l[2][7] </args>
      <args> l[3][7] </args>
      <args> l[4][7] </args>
      <args> l[5][7] </args>
      <args> l[6][7] </args>
      <args> t[7][0] </args>
      <args> t[7][1] </args>
      <args> t[7][2] </args>
      <args> t[7][3] </args>
      <args> t[7][4] </args>
      <args> t[7][5] </args>
      <args> t[7][6] </args>
      <args> l[0][0] </args>
      <args> l[1][0] </args>
      <args> l[2][0] </args>
      <args> l[3][0] </args>
      <args> l[4][0] </args>
      <args> l[5][0] </args>
      <args> l[6][0] </args>
    </group>
  </constraints>
</instance>
